0000000000000000
0000000000000000
0001000110000000
0001100110000000
0000100010000000
0001110100000000
0001011000000000
0001001000000000
0011000100000000
0011000110000000
0000000000000000
0000000000000000
0000000000000000
0000000000000000
0000000000000000
0000000000000000
